projet_m2_wvcp/reduced_wvcp_dzn/GEOM110b.clq.dzn
cliques=[{0,9,11,15,37,39,40,42,45,61,62},{0,1,2,3,4,5,6,7,10,12,35,36,62,63,69},{0,1,2,3,4,5,6,7,10,12,35,36,62,63,69},{0,1,3,2,4,5,6,7,10,12,35,36,62,63,69},{0,1,2,3,4,5,6,7,10,12,35,36,62,63,69},{0,1,2,3,5,4,6,7,10,12,35,36,62,63,69},{3,2,4,5,6,7,32,35,36,63,64,68},{3,2,4,5,6,7,32,35,36,63,64,68},{8,16,18,21,23,27,32,44,49,50,53,67,83},{0,9,11,15,37,39,40,42,45,61,62},{0,1,2,3,4,5,6,7,10,12,35,36,62,63,69},{0,9,11,15,37,39,40,42,45,61,62},{0,1,2,3,4,5,6,7,10,12,35,36,62,63,69},{0,1,2,3,4,5,10,13,12,35,36,63,66,69},{0,9,14,17,37,39,41,42,46,47,61,72},{0,9,11,15,37,39,40,42,45,61,62},{8,16,18,21,23,27,32,44,49,50,53,67,83},{0,9,14,17,37,39,41,42,46,47,61,72},{8,16,18,21,23,27,32,44,49,50,53,67,83},{9,14,17,19,37,41,42,46,47,61,72,84},{8,16,18,20,21,23,32,44,67,70,82},{8,16,18,21,23,27,32,44,49,50,53,67,83},{1,4,5,10,13,12,22,33,38,66,69,75,76,79},{8,16,18,21,23,27,32,44,49,50,53,67,83},{6,7,15,24,34,40,43,64,68},{18,20,21,23,25,28,30,70,74,82},{8,16,26,27,32,43,44,49,51,50,67,77,83},{8,16,18,21,23,27,32,44,49,50,53,67,83},{18,20,21,23,25,28,30,70,74,82},{13,22,29,33,38,60,65,66,75,79,81,88},{18,20,21,23,25,28,30,70,74,82},{20,25,28,31,55,70,74},{8,16,18,21,23,27,32,44,49,50,53,67,83},{0,1,2,3,4,5,10,12,13,33,63,66,69},{3,6,7,8,32,34,35,36,64,68,67,77},{0,1,3,2,4,5,6,7,10,12,35,36,62,63,69},{0,1,3,2,4,5,6,7,10,12,36,35,62,63,69},{0,9,11,15,37,39,40,42,45,61,62},{0,1,2,4,5,10,13,12,33,38,63,66,69,75},{0,9,11,15,37,39,40,42,45,61,62},{0,9,11,15,37,39,40,42,45,61,62},{0,9,14,17,37,39,41,42,46,47,61,72},{0,9,11,15,37,39,40,42,45,61,62},{8,16,26,32,34,43,44,50,51,68,67,77,83},{8,16,18,21,23,27,32,44,49,50,53,67,83},{11,15,24,34,40,45,48,54,57,64},{0,9,14,17,37,39,41,42,46,47,61,72},{0,9,14,17,37,39,41,42,46,47,61,72},{11,15,24,34,40,45,48,54,57,64},{8,16,18,21,23,27,32,44,49,50,53,67,83},{8,16,18,21,23,27,32,44,49,50,53,67,83},{8,16,26,27,32,43,44,49,51,50,67,77,83},{9,11,14,37,39,41,42,52,72,84,87,89},{8,16,18,21,23,27,32,44,49,50,53,67,83},{11,15,24,34,40,45,48,54,57,64},{3,10,25,55,70,71,74,78,80},{11,15,37,39,45,48,56,54,57,86},{11,15,24,34,40,45,48,54,57,64},{15,24,34,40,43,48,58,64,68},{11,37,39,42,52,56,59,72,86,84,87,89},{13,22,29,33,38,60,65,66,75,79,81,88},{0,9,11,15,37,39,40,42,45,61,62},{0,9,11,15,37,39,40,42,45,61,62},{0,1,2,3,4,5,6,7,10,12,35,36,62,63,69},{3,2,4,5,6,7,32,35,36,63,64,68},{0,1,2,4,5,9,33,61,62,63,65},{0,1,2,3,4,5,10,13,12,35,36,63,66,69},{8,16,18,21,23,27,32,44,49,50,53,67,83},{3,6,7,8,32,34,35,36,64,68,67,77},{0,1,2,3,4,5,6,7,10,12,35,36,62,63,69},{18,20,21,23,25,28,30,70,74,82},{8,18,20,21,25,32,71,70,74,82},{0,9,14,17,37,39,41,42,46,47,61,72},{0,1,9,14,17,33,41,61,65,73,72},{18,20,21,23,25,28,30,70,74,82},{0,1,2,4,5,10,13,12,33,38,63,66,69,75},{1,2,3,4,5,10,12,13,35,36,63,66,69,76,78},{3,6,8,7,32,34,35,36,64,67,68,77},{1,3,2,4,5,10,12,13,35,36,63,66,69,76,78},{1,4,5,10,13,12,22,33,38,66,69,75,76,79},{3,4,5,10,12,35,36,69,71,74,76,78,80},{1,14,17,19,33,41,65,73,81,85},{8,16,18,20,21,23,32,44,67,70,82},{8,16,18,21,23,27,32,44,49,50,53,67,83},{9,14,17,37,39,41,42,46,47,72,84,87},{1,14,17,19,33,41,65,73,81,85},{9,11,15,37,39,40,42,45,61,86},{9,14,17,37,39,41,42,46,47,72,84,87},{13,22,33,38,60,65,66,73,75,79,81,88},{9,11,14,37,39,41,42,52,72,84,87,89}];
nr_cliques=90;
