projet_m2_wvcp/reduced_wvcp_dzn/GEOM110b.dzn
name="GEOM110b";
nr_vertices=90;
nr_edges=1068;
neighborhoods=[{1,2,3,4,5,6,7,9,10,11,12,13,14,15,17,33,34,35,36,37,38,39,40,41,42,45,46,47,48,61,62,63,64,65,66,69,72,73,75},{0,2,3,4,5,6,7,9,10,12,13,14,17,19,22,33,35,36,37,38,41,61,62,63,64,65,66,69,72,73,75,76,78,79,81,85},{0,1,3,4,5,6,7,9,10,11,12,13,15,32,33,34,35,36,38,40,61,62,63,64,65,66,68,69,71,75,76,78,79},{0,1,2,4,5,6,7,8,10,12,13,25,32,33,34,35,36,55,62,63,64,66,67,68,69,70,71,74,76,77,78,79,80},{0,1,2,3,5,6,7,9,10,12,13,22,32,33,35,36,38,61,62,63,64,65,66,68,69,71,74,75,76,78,79,80},{0,1,2,3,4,6,7,9,10,12,13,22,32,33,35,36,38,61,62,63,64,65,66,68,69,71,74,75,76,78,79,80},{0,1,2,3,4,5,7,8,10,12,15,16,24,32,34,35,36,40,43,44,61,62,63,64,67,68,69,70,71,77,78},{0,1,2,3,4,5,6,8,10,11,12,15,24,32,34,35,36,40,43,48,51,54,61,62,63,64,67,68,69,77},{3,6,7,16,18,20,21,23,25,26,27,32,34,35,36,43,44,49,50,51,53,64,67,68,70,71,74,77,82,83},{0,1,2,4,5,11,14,15,17,19,33,37,39,40,41,42,45,46,47,52,61,62,63,65,72,73,84,86,87,89},{0,1,2,3,4,5,6,7,12,13,22,25,33,35,36,38,55,62,63,66,69,70,71,74,75,76,78,79,80},{0,2,7,9,14,15,24,34,37,39,40,41,42,45,48,52,54,56,57,59,61,62,63,64,72,84,86,87,89},{0,1,2,3,4,5,6,7,10,13,22,33,35,36,38,55,62,63,66,69,70,71,74,75,76,78,79,80},{0,1,2,3,4,5,10,12,22,29,33,35,36,38,60,63,65,66,69,71,73,75,76,78,79,80,81,88},{0,1,9,11,17,19,33,37,38,39,41,42,46,47,52,61,62,65,72,73,81,84,85,87,88,89},{0,2,6,7,9,11,24,34,37,39,40,42,43,45,48,54,56,57,58,61,62,63,64,68,86},{6,8,18,20,21,23,26,27,30,32,34,43,44,49,50,51,53,67,68,70,77,82,83},{0,1,9,14,19,33,37,38,39,41,42,46,47,61,65,72,73,75,81,84,85,87,88},{8,16,20,21,23,25,27,28,30,32,44,49,50,53,55,67,70,71,74,80,82,83},{1,9,14,17,22,33,37,38,41,42,46,47,61,65,72,73,75,81,84,85,87,88},{8,16,18,21,23,25,28,30,31,32,44,49,53,55,67,70,71,74,78,80,82},{8,16,18,20,23,25,27,28,30,32,44,49,50,53,67,70,71,74,77,82,83},{1,4,5,10,12,13,19,29,33,38,60,65,66,69,73,75,76,79,81,85,88},{8,16,18,20,21,25,27,28,30,32,44,49,50,53,67,70,74,82,83},{6,7,11,15,26,32,34,40,43,45,48,51,54,57,58,64,67,68,77},{3,8,10,18,20,21,23,28,30,31,32,55,70,71,74,78,80,82},{8,16,24,27,32,34,43,44,49,50,51,58,64,67,68,77,83},{8,16,18,21,23,26,32,43,44,49,50,51,53,67,77,83},{18,20,21,23,25,30,31,53,55,70,74,82},{13,22,33,38,60,65,66,75,79,81,85,88},{16,18,20,21,23,25,28,53,70,74,82},{20,25,28,55,70,71,74,76,78,80},{2,3,4,5,6,7,8,16,18,20,21,23,24,25,26,27,34,35,36,43,44,49,50,51,53,63,64,67,68,70,71,74,77,82,83},{0,1,2,3,4,5,9,10,12,13,14,17,19,22,29,38,41,46,47,60,61,62,63,65,66,69,72,73,75,76,79,81,85,88},{0,2,3,6,7,8,11,15,16,24,26,32,35,36,40,43,44,45,48,50,51,54,57,58,62,63,64,67,68,77,83},{0,1,2,3,4,5,6,7,8,10,12,13,32,34,36,61,62,63,64,66,67,68,69,70,71,74,76,77,78,80},{0,1,2,3,4,5,6,7,8,10,12,13,32,34,35,61,62,63,64,66,67,68,69,70,71,74,76,77,78,80},{0,1,9,11,14,15,17,19,39,40,41,42,45,46,47,48,52,54,56,57,59,61,62,72,84,86,87,89},{0,1,2,4,5,10,12,13,14,17,19,22,29,33,60,63,65,66,69,73,75,76,79,81,85,88},{0,9,11,14,15,17,37,40,41,42,45,46,47,48,52,54,56,57,59,61,62,72,84,86,87,89},{0,2,6,7,9,11,15,24,34,37,39,42,43,45,48,54,57,58,61,62,63,64,68,77,86},{0,1,9,11,14,17,19,33,37,39,42,46,47,52,59,61,62,65,72,73,81,84,85,87,89},{0,9,11,14,15,17,19,37,39,40,41,45,46,47,52,56,59,61,62,72,84,86,87,89},{6,7,8,15,16,24,26,27,32,34,40,44,48,49,50,51,54,58,64,67,68,77,83},{6,8,16,18,20,21,23,26,27,32,34,43,49,50,51,53,67,68,70,77,82,83},{0,9,11,15,24,34,37,39,40,42,48,52,54,56,57,58,59,61,62,64,86,89},{0,9,14,17,19,33,37,39,41,42,47,52,61,65,72,73,81,84,85,87,88,89},{0,9,14,17,19,33,37,39,41,42,46,52,61,65,72,73,81,84,85,87,89},{0,7,11,15,24,34,37,39,40,43,45,54,56,57,58,61,62,64,68,86},{8,16,18,20,21,23,26,27,32,43,44,50,51,53,67,68,77,82,83},{8,16,18,21,23,26,27,32,34,43,44,49,51,53,67,68,77,83},{7,8,16,24,26,27,32,34,43,44,49,50,58,64,67,68,77,83},{9,11,14,37,39,41,42,45,46,47,56,59,61,72,84,86,87,89},{8,16,18,20,21,23,27,28,30,32,44,49,50,67,82,83},{7,11,15,24,34,37,39,40,43,45,48,56,57,58,64,86},{3,10,12,18,20,25,28,31,69,70,71,74,76,78,80,82},{11,15,37,39,42,45,48,52,54,57,59,72,84,86,87,89},{11,15,24,34,37,39,40,45,48,54,56,58,61,64,86},{15,24,26,34,40,43,45,48,51,54,57,64,67,68,77},{11,37,39,41,42,45,52,56,72,84,86,87,89},{13,22,29,33,38,65,66,73,75,79,81,85,88},{0,1,2,4,5,6,7,9,11,14,15,17,19,33,35,36,37,39,40,41,42,45,46,47,48,52,57,62,63,64,65,72,73,84,86},{0,1,2,3,4,5,6,7,9,10,11,12,14,15,33,34,35,36,37,39,40,41,42,45,48,61,63,64,65,66,68,69,72,73},{0,1,2,3,4,5,6,7,9,10,11,12,13,15,32,33,34,35,36,38,40,61,62,64,65,66,68,69,73,75,76,78,79},{0,1,2,3,4,5,6,7,8,11,15,24,26,32,34,35,36,40,43,45,48,51,54,57,58,61,62,63,67,68,77},{0,1,2,4,5,9,13,14,17,19,22,29,33,38,41,46,47,60,61,62,63,66,69,72,73,75,79,81,85,88},{0,1,2,3,4,5,10,12,13,22,29,33,35,36,38,60,62,63,65,69,71,73,75,76,78,79,80,81,85,88},{3,6,7,8,16,18,20,21,23,24,26,27,32,34,35,36,43,44,49,50,51,53,58,64,68,70,77,82,83},{2,3,4,5,6,7,8,15,16,24,26,32,34,35,36,40,43,44,48,49,50,51,58,62,63,64,67,77,83},{0,1,2,3,4,5,6,7,10,12,13,22,33,35,36,38,55,62,63,65,66,71,73,74,75,76,78,79,80},{3,6,8,10,12,16,18,20,21,23,25,28,30,31,32,35,36,44,55,67,71,74,76,78,80,82},{2,3,4,5,6,8,10,12,13,18,20,21,25,31,32,35,36,55,66,69,70,74,76,78,80,82},{0,1,9,11,14,17,19,33,37,39,41,42,46,47,52,56,59,61,62,65,73,81,84,86,87,89},{0,1,9,13,14,17,19,22,33,38,41,46,47,60,61,62,63,65,66,69,72,75,79,81,85,88},{3,4,5,8,10,12,18,20,21,23,25,28,30,31,32,35,36,55,69,70,71,76,78,80,82},{0,1,2,4,5,10,12,13,17,19,22,29,33,38,60,63,65,66,69,73,76,79,81,85,88},{1,2,3,4,5,10,12,13,22,31,33,35,36,38,55,63,66,69,70,71,74,75,78,79,80},{3,6,7,8,16,21,24,26,27,32,34,35,36,40,43,44,49,50,51,58,64,67,68,83},{1,2,3,4,5,6,10,12,13,20,25,31,35,36,55,63,66,69,70,71,74,76,79,80},{1,2,3,4,5,10,12,13,22,29,33,38,60,63,65,66,69,73,75,76,78,81,85,88},{3,4,5,10,12,13,18,20,25,31,35,36,55,66,69,70,71,74,76,78,82},{1,13,14,17,19,22,29,33,38,41,46,47,60,65,66,72,73,75,79,85,88},{8,16,18,20,21,23,25,28,30,32,44,49,53,55,67,70,71,74,80,83},{8,16,18,21,23,26,27,32,34,43,44,49,50,51,53,67,68,77,82},{9,11,14,17,19,37,39,41,42,46,47,52,56,59,61,72,86,87,89},{1,14,17,19,22,29,33,38,41,46,47,60,65,66,73,75,79,81,88},{9,11,15,37,39,40,42,45,48,52,54,56,57,59,61,72,84,87,89},{9,11,14,17,19,37,39,41,42,46,47,52,56,59,72,84,86,89},{13,14,17,19,22,29,33,38,46,60,65,66,73,75,79,81,85},{9,11,14,37,39,41,42,45,46,47,52,56,59,72,84,86,87}];
weights=[3,3,3,3,3,3,3,3,3,3,3,3,3,3,3,3,3,3,3,3,3,3,3,3,3,3,3,3,3,3,3,3,2,2,2,2,2,2,2,2,2,2,2,2,2,2,2,2,2,2,2,2,2,2,2,2,2,2,2,2,2,1,1,1,1,1,1,1,1,1,1,1,1,1,1,1,1,1,1,1,1,1,1,1,1,1,1,1,1,1];
